p tw 192 1230
1 2
1 3
1 4
1 25
1 26
1 27
1 28
1 49
1 50
1 61
1 67
1 73
1 74
1 85
1 91
1 97
1 103
1 104
2 3
2 4
2 25
2 26
2 27
2 28
2 49
2 50
2 61
2 67
2 73
2 74
2 115
2 121
2 127
2 133
2 134
3 4
3 25
3 26
3 27
3 28
3 49
3 50
3 61
3 85
3 91
3 115
3 121
3 145
3 146
3 157
3 158
4 25
4 26
4 27
4 28
4 49
4 50
4 67
4 85
4 97
4 115
4 127
4 145
4 146
4 169
4 170
5 6
5 7
5 8
5 29
5 30
5 31
5 32
5 51
5 52
5 62
5 68
5 75
5 76
5 86
5 92
5 98
5 105
5 106
6 7
6 8
6 29
6 30
6 31
6 32
6 51
6 52
6 62
6 68
6 75
6 76
6 116
6 122
6 128
6 135
6 136
7 8
7 29
7 30
7 31
7 32
7 51
7 52
7 62
7 86
7 92
7 116
7 122
7 147
7 148
7 159
7 160
8 29
8 30
8 31
8 32
8 51
8 52
8 68
8 86
8 98
8 116
8 128
8 147
8 148
8 171
8 172
9 10
9 11
9 12
9 33
9 34
9 35
9 36
9 53
9 54
9 63
9 69
9 77
9 78
9 87
9 93
9 99
9 107
9 108
10 11
10 12
10 33
10 34
10 35
10 36
10 53
10 54
10 63
10 69
10 77
10 78
10 117
10 123
10 129
10 137
10 138
11 12
11 33
11 34
11 35
11 36
11 53
11 54
11 63
11 87
11 93
11 117
11 123
11 149
11 150
11 161
11 162
12 33
12 34
12 35
12 36
12 53
12 54
12 69
12 87
12 99
12 117
12 129
12 149
12 150
12 173
12 174
13 14
13 15
13 16
13 37
13 38
13 39
13 40
13 55
13 56
13 64
13 70
13 79
13 80
13 88
13 94
13 100
13 109
13 110
14 15
14 16
14 37
14 38
14 39
14 40
14 55
14 56
14 64
14 70
14 79
14 80
14 118
14 124
14 130
14 139
14 140
15 16
15 37
15 38
15 39
15 40
15 55
15 56
15 64
15 88
15 94
15 118
15 124
15 151
15 152
15 163
15 164
16 37
16 38
16 39
16 40
16 55
16 56
16 70
16 88
16 100
16 118
16 130
16 151
16 152
16 175
16 176
17 18
17 19
17 20
17 41
17 42
17 43
17 44
17 57
17 58
17 65
17 71
17 81
17 82
17 89
17 95
17 101
17 111
17 112
18 19
18 20
18 41
18 42
18 43
18 44
18 57
18 58
18 65
18 71
18 81
18 82
18 119
18 125
18 131
18 141
18 142
19 20
19 41
19 42
19 43
19 44
19 57
19 58
19 65
19 89
19 95
19 119
19 125
19 153
19 154
19 165
19 166
20 41
20 42
20 43
20 44
20 57
20 58
20 71
20 89
20 101
20 119
20 131
20 153
20 154
20 177
20 178
21 22
21 23
21 24
21 45
21 46
21 47
21 48
21 59
21 60
21 66
21 72
21 83
21 84
21 90
21 96
21 102
21 113
21 114
22 23
22 24
22 45
22 46
22 47
22 48
22 59
22 60
22 66
22 72
22 83
22 84
22 120
22 126
22 132
22 143
22 144
23 24
23 45
23 46
23 47
23 48
23 59
23 60
23 66
23 90
23 96
23 120
23 126
23 155
23 156
23 167
23 168
24 45
24 46
24 47
24 48
24 59
24 60
24 72
24 90
24 102
24 120
24 132
24 155
24 156
24 179
24 180
25 27
25 28
25 50
25 115
25 121
25 127
25 133
25 134
25 145
25 146
25 157
25 158
25 169
25 170
25 181
25 182
26 27
26 28
26 49
26 50
26 85
26 91
26 97
26 103
26 104
26 145
26 146
26 157
26 158
26 169
26 170
26 181
26 182
27 50
27 67
27 73
27 74
27 97
27 103
27 104
27 127
27 133
27 134
27 169
27 170
27 181
27 182
28 49
28 50
28 61
28 73
28 74
28 91
28 103
28 104
28 121
28 133
28 134
28 157
28 158
28 181
28 182
29 31
29 32
29 52
29 116
29 122
29 128
29 135
29 136
29 147
29 148
29 159
29 160
29 171
29 172
29 183
29 184
30 31
30 32
30 51
30 52
30 86
30 92
30 98
30 105
30 106
30 147
30 148
30 159
30 160
30 171
30 172
30 183
30 184
31 52
31 68
31 75
31 76
31 98
31 105
31 106
31 128
31 135
31 136
31 171
31 172
31 183
31 184
32 51
32 52
32 62
32 75
32 76
32 92
32 105
32 106
32 122
32 135
32 136
32 159
32 160
32 183
32 184
33 35
33 36
33 54
33 117
33 123
33 129
33 137
33 138
33 149
33 150
33 161
33 162
33 173
33 174
33 185
33 186
34 35
34 36
34 53
34 54
34 87
34 93
34 99
34 107
34 108
34 149
34 150
34 161
34 162
34 173
34 174
34 185
34 186
35 54
35 69
35 77
35 78
35 99
35 107
35 108
35 129
35 137
35 138
35 173
35 174
35 185
35 186
36 53
36 54
36 63
36 77
36 78
36 93
36 107
36 108
36 123
36 137
36 138
36 161
36 162
36 185
36 186
37 39
37 40
37 56
37 118
37 124
37 130
37 139
37 140
37 151
37 152
37 163
37 164
37 175
37 176
37 187
37 188
38 39
38 40
38 55
38 56
38 88
38 94
38 100
38 109
38 110
38 151
38 152
38 163
38 164
38 175
38 176
38 187
38 188
39 56
39 70
39 79
39 80
39 100
39 109
39 110
39 130
39 139
39 140
39 175
39 176
39 187
39 188
40 55
40 56
40 64
40 79
40 80
40 94
40 109
40 110
40 124
40 139
40 140
40 163
40 164
40 187
40 188
41 43
41 44
41 58
41 119
41 125
41 131
41 141
41 142
41 153
41 154
41 165
41 166
41 177
41 178
41 189
41 190
42 43
42 44
42 57
42 58
42 89
42 95
42 101
42 111
42 112
42 153
42 154
42 165
42 166
42 177
42 178
42 189
42 190
43 58
43 71
43 81
43 82
43 101
43 111
43 112
43 131
43 141
43 142
43 177
43 178
43 189
43 190
44 57
44 58
44 65
44 81
44 82
44 95
44 111
44 112
44 125
44 141
44 142
44 165
44 166
44 189
44 190
45 47
45 48
45 60
45 120
45 126
45 132
45 143
45 144
45 155
45 156
45 167
45 168
45 179
45 180
45 191
45 192
46 47
46 48
46 59
46 60
46 90
46 96
46 102
46 113
46 114
46 155
46 156
46 167
46 168
46 179
46 180
46 191
46 192
47 60
47 72
47 83
47 84
47 102
47 113
47 114
47 132
47 143
47 144
47 179
47 180
47 191
47 192
48 59
48 60
48 66
48 83
48 84
48 96
48 113
48 114
48 126
48 143
48 144
48 167
48 168
48 191
48 192
49 67
49 73
49 97
49 103
49 115
49 121
49 127
49 133
49 145
49 157
49 169
49 181
50 61
50 74
50 85
50 91
50 104
50 134
50 146
50 158
50 170
50 182
51 68
51 75
51 98
51 105
51 116
51 122
51 128
51 135
51 147
51 159
51 171
51 183
52 62
52 76
52 86
52 92
52 106
52 136
52 148
52 160
52 172
52 184
53 69
53 77
53 99
53 107
53 117
53 123
53 129
53 137
53 149
53 161
53 173
53 185
54 63
54 78
54 87
54 93
54 108
54 138
54 150
54 162
54 174
54 186
55 70
55 79
55 100
55 109
55 118
55 124
55 130
55 139
55 151
55 163
55 175
55 187
56 64
56 80
56 88
56 94
56 110
56 140
56 152
56 164
56 176
56 188
57 71
57 81
57 101
57 111
57 119
57 125
57 131
57 141
57 153
57 165
57 177
57 189
58 65
58 82
58 89
58 95
58 112
58 142
58 154
58 166
58 178
58 190
59 72
59 83
59 102
59 113
59 120
59 126
59 132
59 143
59 155
59 167
59 179
59 191
60 66
60 84
60 90
60 96
60 114
60 144
60 156
60 168
60 180
60 192
61 62
61 63
61 64
61 65
61 66
62 63
62 64
62 65
62 66
63 64
63 65
63 66
64 65
64 66
65 66
67 68
67 69
67 70
67 71
67 72
68 69
68 70
68 71
68 72
69 70
69 71
69 72
70 71
70 72
71 72
73 75
73 77
73 79
73 81
73 83
74 76
74 78
74 80
74 82
74 84
75 77
75 79
75 81
75 83
76 78
76 80
76 82
76 84
77 79
77 81
77 83
78 80
78 82
78 84
79 81
79 83
80 82
80 84
81 83
82 84
85 86
85 87
85 88
85 89
85 90
86 87
86 88
86 89
86 90
87 88
87 89
87 90
88 89
88 90
89 90
91 92
91 93
91 94
91 95
91 96
92 93
92 94
92 95
92 96
93 94
93 95
93 96
94 95
94 96
95 96
97 98
97 99
97 100
97 101
97 102
98 99
98 100
98 101
98 102
99 100
99 101
99 102
100 101
100 102
101 102
103 105
103 107
103 109
103 111
103 113
104 106
104 108
104 110
104 112
104 114
105 107
105 109
105 111
105 113
106 108
106 110
106 112
106 114
107 109
107 111
107 113
108 110
108 112
108 114
109 111
109 113
110 112
110 114
111 113
112 114
115 116
115 117
115 118
115 119
115 120
116 117
116 118
116 119
116 120
117 118
117 119
117 120
118 119
118 120
119 120
121 122
121 123
121 124
121 125
121 126
122 123
122 124
122 125
122 126
123 124
123 125
123 126
124 125
124 126
125 126
127 128
127 129
127 130
127 131
127 132
128 129
128 130
128 131
128 132
129 130
129 131
129 132
130 131
130 132
131 132
133 135
133 137
133 139
133 141
133 143
134 136
134 138
134 140
134 142
134 144
135 137
135 139
135 141
135 143
136 138
136 140
136 142
136 144
137 139
137 141
137 143
138 140
138 142
138 144
139 141
139 143
140 142
140 144
141 143
142 144
145 147
145 149
145 151
145 153
145 155
146 148
146 150
146 152
146 154
146 156
147 149
147 151
147 153
147 155
148 150
148 152
148 154
148 156
149 151
149 153
149 155
150 152
150 154
150 156
151 153
151 155
152 154
152 156
153 155
154 156
157 159
157 161
157 163
157 165
157 167
158 160
158 162
158 164
158 166
158 168
159 161
159 163
159 165
159 167
160 162
160 164
160 166
160 168
161 163
161 165
161 167
162 164
162 166
162 168
163 165
163 167
164 166
164 168
165 167
166 168
169 171
169 173
169 175
169 177
169 179
170 172
170 174
170 176
170 178
170 180
171 173
171 175
171 177
171 179
172 174
172 176
172 178
172 180
173 175
173 177
173 179
174 176
174 178
174 180
175 177
175 179
176 178
176 180
177 179
178 180
181 183
181 185
181 187
181 189
181 191
182 184
182 186
182 188
182 190
182 192
183 185
183 187
183 189
183 191
184 186
184 188
184 190
184 192
185 187
185 189
185 191
186 188
186 190
186 192
187 189
187 191
188 190
188 192
189 191
190 192
